1163.0 13366.0 2978.0 
1161.0 13356.0 3088.0 
1178.0 13375.0 2972.0 
1154.0 13460.0 3108.0 
1148.0 13510.0 3155.0 
1219.0 13457.0 2772.0 
1242.0 13244.0 2762.0 
1243.0 13211.0 3022.0 
1163.0 13227.0 3038.0 
1215.0 13503.0 2816.0 
1186.0 13242.0 2881.0 
1138.0 13592.0 3232.0 
1198.0 13291.0 2835.0 
1125.0 13902.0 3595.0 
1242.0 13244.0 2762.0 
1122.0 14302.0 3952.0 
1161.0 13402.0 2979.0 
1127.0 13888.0 3872.0 
1147.0 13473.0 3197.0 
1163.0 13227.0 3038.0 
1242.0 13240.0 2764.0 
1148.0 13510.0 3155.0 
1148.0 13510.0 3155.0 
1254.0 13401.0 2714.0 
1125.0 13898.0 3611.0 
1242.0 13240.0 2764.0 
1178.0 13371.0 2976.0 
1150.0 13439.0 3146.0 
1147.0 13473.0 3197.0 
1161.0 13367.0 3003.0 
1157.0 13374.0 3027.0 
